(declare-fun x_2 () Real)
(declare-fun x_1 () Real)
(assert (and (or (= x_1 0.0) (= x_1 (- 1.0)) (= x_1 2.0) (= x_1 (- 3.0)) (= x_1 4.0))
     (distinct (+ (* (/ 6987.0 100.0) x_1) (* (/ 4909.0 50.0) x_1)) 0.0)
     (distinct (+ (* (/ 381.0 5.0) x_1) (* (/ 1617.0 25.0) x_2)) 0.0)
     (distinct (+ (* (/ 6247.0 100.0) x_1) (* (/ 2263.0 50.0) x_2)) 0.0)
     (distinct (+ (* (/ 2909.0 100.0) x_1) (* (- (/ 6399.0 100.0)) x_2)) 0.0)
     (distinct (+ (* (/ 3373.0 50.0) x_1) (* (/ 1879.0 20.0) x_2)) 0.0)))
